0 5 564  1 0 0 0 1
1 5 1766  1 1 1 1 0
2 5 1473  0 1 1 1 1
3 5 1160  0 1 1 0 1
4 5 809  1 1 1 1 0
5 5 1054  1 1 0 1 1
6 5 762  1 0 1 0 1
7 5 1398  0 1 1 1 1
8 5 1280  1 1 0 1 1
9 5 761  0 0 1 1 0
10 5 586  1 0 0 1 0
11 5 327  1 0 0 0 1
12 5 1461  1 1 0 1 1
13 5 923  1 0 0 1 0
14 5 1327  1 1 1 1 0
15 5 917  1 1 1 0 1
16 5 1391  1 1 0 1 1
17 5 891  1 1 0 0 0
18 5 864  1 1 0 1 0
19 5 842  0 1 1 1 1
20 5 858  1 0 1 0 0
21 5 317  0 0 0 1 0
22 5 1580  1 1 1 1 1
23 5 886  0 1 1 0 0
24 5 942  1 0 1 1 1
25 5 1422  1 1 1 1 1
26 5 178  0 0 0 0 1
27 5 693  1 1 0 1 0
28 5 1001  1 1 0 1 1
29 5 475  0 1 0 0 0
30 5 1479  1 0 1 1 1
31 5 1321  1 1 1 1 1
32 5 869  1 1 1 0 0
33 5 1021  1 1 1 1 1
34 5 1698  1 1 1 1 1
35 5 1552  1 1 1 1 1
36 5 912  0 1 1 1 1
37 5 843  1 1 1 1 1
38 5 378  1 1 1 0 0
39 5 624  0 0 0 1 1
40 5 1152  1 1 1 1 1
41 5 732  1 1 0 1 0
42 5 397  1 0 0 0 1
43 5 614  0 0 1 0 1
44 5 1145  1 0 1 1 1
45 5 500  0 0 0 1 1
46 5 546  0 1 1 0 0
47 5 720  1 1 1 0 0
48 5 1139  1 0 1 0 1
49 5 1649  1 1 1 1 1
50 5 491  1 0 1 0 0
51 5 744  1 0 0 1 1
52 5 862  1 1 1 1 1
53 5 1521  1 1 1 1 1
54 5 302  0 0 1 0 0
55 5 1151  1 1 0 0 1
56 5 1295  1 1 1 1 1
57 5 649  0 1 0 0 1
58 5 791  1 1 1 0 0
59 5 807  1 1 1 1 0
60 5 1221  1 1 1 1 1
61 5 809  1 1 1 0 1
62 5 849  1 0 1 0 0
63 5 978  0 1 1 1 1
64 5 782  0 1 0 1 1
65 5 732  0 1 0 1 0
66 5 789  0 1 1 0 0
67 5 1179  1 0 1 1 1
68 5 1009  1 1 1 0 0
69 5 599  0 1 1 1 0
70 5 1301  0 0 1 1 1
71 5 1373  1 1 1 1 1
72 5 938  1 1 0 0 0
73 5 1196  1 1 1 1 1
74 5 1440  1 1 1 1 1
75 5 708  0 1 1 0 0
76 5 1149  1 0 1 0 1
77 5 758  0 0 1 1 0
78 5 1177  1 1 1 1 1
79 5 1221  1 1 1 0 0
80 5 867  1 1 0 1 0
81 5 1256  1 0 1 0 1
82 5 413  0 1 0 0 0
83 5 1146  1 1 1 1 0
84 5 577  1 0 1 1 0
85 5 648  0 0 1 0 1
86 5 704  1 0 0 1 1
87 5 909  0 0 1 1 1
88 5 1188  1 1 1 0 1
89 5 1493  1 0 1 1 1
90 5 941  1 1 1 0 1
91 5 802  1 1 0 0 0
92 5 1400  1 0 1 1 1
93 5 896  1 0 0 1 1
94 5 587  0 1 0 1 1
95 5 396  0 1 0 0 0
96 5 1079  0 1 1 1 1
97 5 680  1 0 1 0 1
98 5 751  0 0 1 1 1
99 5 661  1 0 1 1 0
100 5 908  1 0 1 0 1
101 5 848  1 1 0 1 1
102 5 640  1 1 1 0 1
103 5 590  0 1 1 1 0
104 5 1252  1 1 0 1 0
105 5 875  1 1 1 1 1
106 5 926  0 1 0 1 1
107 5 534  0 0 1 1 0
108 5 1108  1 1 1 0 1
109 5 549  1 0 1 0 0
110 5 472  0 0 1 0 0
111 5 850  0 0 1 1 0
112 5 1208  0 1 1 1 1
113 5 1648  0 1 1 1 1
114 5 1178  0 1 0 1 1
115 5 381  0 0 0 1 0
116 5 912  1 1 1 1 1
117 5 601  1 1 1 1 1
118 5 1163  1 1 0 1 1
119 5 1216  1 1 1 0 1
120 5 822  1 0 1 1 0
121 5 1492  1 1 1 1 0
122 5 1202  1 1 1 1 1
123 5 1100  0 1 1 1 1
124 5 1864  1 1 1 1 1
125 5 777  1 0 1 1 0
126 5 1610  0 1 1 1 1
127 5 1294  0 1 1 1 1
128 5 909  1 1 1 1 1
129 5 1320  1 1 1 1 1
130 5 1198  1 0 0 1 1
131 5 755  1 1 1 1 1
132 5 877  1 0 1 1 0
133 5 910  1 1 1 1 0
134 5 561  0 1 0 1 0
135 5 769  1 1 1 1 1
136 5 690  1 0 0 1 0
137 5 689  1 1 1 1 1
138 5 1086  1 1 1 1 1
139 5 822  1 0 1 0 1
140 5 986  1 1 1 0 1
141 5 852  1 1 1 1 1
142 5 849  1 1 1 0 1
143 5 1140  1 1 1 0 1
144 5 594  1 1 0 1 1
145 5 502  1 0 1 0 1
146 5 1127  1 0 1 1 1
147 5 1170  1 1 0 1 0
148 5 784  1 1 0 0 1
149 5 480  0 0 1 0 0
150 5 952  1 1 0 1 0
151 5 1215  1 0 1 1 1
152 5 1213  1 0 1 1 1
153 5 1177  1 1 1 1 1
154 5 910  0 1 1 1 1
155 5 550  1 0 0 0 1
156 5 1149  1 1 0 1 1
157 5 1195  0 1 1 1 1
158 5 1558  1 1 1 1 1
159 5 1166  1 0 1 1 1
160 5 1372  1 1 1 0 1
161 5 747  0 0 1 1 0
162 5 331  0 1 1 0 1
163 5 864  1 1 1 1 0
164 5 1051  0 1 0 1 1
165 5 1062  1 1 0 0 1
166 5 1005  1 1 1 1 1
167 5 733  1 0 1 0 1
168 5 392  0 0 1 0 1
169 5 620  0 1 1 0 1
170 5 736  1 0 1 0 0
171 5 1103  1 0 1 1 1
172 5 837  1 0 1 1 1
173 5 346  0 0 0 1 0
174 5 848  1 1 0 0 1
175 5 481  0 0 0 1 0
176 5 749  1 1 1 1 1
177 5 783  1 1 0 1 0
178 5 743  0 0 0 1 1
179 5 959  1 0 1 1 1
180 5 816  1 0 1 0 0
181 5 678  0 0 1 1 0
182 5 841  1 1 1 0 0
183 5 818  0 1 1 1 1
184 5 807  1 0 0 1 1
185 5 895  1 1 1 1 0
186 5 1441  1 1 1 1 1
187 5 508  1 0 0 0 1
188 5 953  1 0 1 0 1
189 5 439  0 0 1 1 1
190 5 1103  1 0 1 1 0
191 5 744  0 0 0 1 1
192 5 1360  1 1 1 0 0
193 5 1232  1 1 0 1 1
194 5 1343  1 1 1 1 1
195 5 1397  1 1 1 1 1
196 5 642  1 1 1 1 1
197 5 491  0 0 0 0 1
198 5 962  1 1 0 1 1
199 5 702  0 0 1 1 1
200 5 1066  1 1 1 1 1
201 5 660  0 1 1 1 1
202 5 1008  1 1 1 1 0
203 5 1553  0 1 1 1 1
204 5 640  1 1 0 0 0
205 5 1551  1 1 1 1 1
206 5 950  1 0 1 1 1
207 5 841  1 0 1 0 0
208 5 940  0 0 1 1 1
209 5 1558  1 1 1 1 1
210 5 1088  1 1 1 1 1
211 5 1309  0 1 1 1 1
212 5 1072  0 1 1 1 1
213 5 1353  1 1 1 1 0
214 5 899  1 0 0 1 1
215 5 1078  1 0 0 1 1
216 5 842  1 1 1 1 1
217 5 1447  1 1 1 1 1
218 5 729  1 1 1 1 1
219 5 810  1 0 0 0 1
220 5 328  0 1 0 0 0
221 5 1161  1 0 1 1 1
222 5 1293  0 1 1 1 1
223 5 1433  0 1 1 1 1
224 5 792  0 0 1 1 0
225 5 804  1 1 0 1 0
226 5 494  0 1 0 1 0
227 5 813  0 1 0 1 1
228 5 827  0 0 0 1 1
229 5 1477  1 1 1 0 1
230 5 1248  1 1 0 1 1
231 5 880  1 0 1 1 0
232 5 1114  0 1 1 0 1
233 5 945  0 1 0 1 1
234 5 1260  0 1 1 0 1
235 5 1298  1 1 0 1 0
236 5 1342  1 0 1 1 1
237 5 720  0 0 1 1 1
238 5 1152  1 1 1 1 0
239 5 1371  1 1 1 1 1
240 5 987  0 1 1 1 0
241 5 700  0 1 1 0 1
242 5 1161  1 1 1 1 1
243 5 1228  1 0 1 1 1
244 5 379  0 0 1 0 0
245 5 473  1 1 1 0 1
246 5 824  0 1 1 0 0
247 5 788  1 1 0 1 1
248 5 1094  1 1 0 1 1
249 5 1186  1 1 0 1 0
250 5 905  0 0 1 1 1
251 5 696  1 0 0 1 0
252 5 489  0 0 0 1 0
253 5 901  0 1 1 1 0
254 5 1160  1 0 1 1 1
255 5 872  1 0 1 1 0
256 5 502  1 0 1 0 1
257 5 1303  1 1 1 1 1
258 5 634  0 0 0 1 1
259 5 963  1 1 0 1 1
260 5 828  1 1 1 1 1
261 5 1239  1 1 1 1 0
262 5 265  0 1 0 1 0
263 5 855  1 1 1 0 1
264 5 1403  1 1 1 1 1
265 5 775  0 0 1 1 1
266 5 1291  1 1 1 0 1
267 5 630  1 0 1 1 1
268 5 831  1 1 1 0 0
269 5 1556  1 1 1 1 1
270 5 1824  1 1 1 1 1
271 5 319  1 0 0 0 0
272 5 1185  1 0 1 1 0
273 5 1531  1 1 1 1 1
274 5 984  0 1 0 1 1
275 5 1110  1 1 1 1 1
276 5 1136  1 0 1 1 0
277 5 492  0 0 0 1 0
278 5 686  1 0 1 1 0
279 5 1188  1 1 0 1 1
280 5 1163  1 1 1 1 1
281 5 1506  1 1 0 1 1
282 5 1302  1 0 1 1 1
283 5 1199  1 0 1 1 1
284 5 892  1 1 1 0 0
285 5 609  1 0 1 0 0
286 5 660  0 1 1 0 1
287 5 952  0 1 1 1 1
288 5 966  1 1 1 1 1
289 5 1183  1 1 0 1 1
290 5 668  1 0 0 1 1
291 5 1520  1 1 0 1 1
292 5 866  1 0 0 1 0
293 5 508  1 1 1 0 1
294 5 470  0 0 1 0 0
295 5 618  0 1 1 1 1
296 5 396  0 0 1 0 0
297 5 857  1 1 1 1 0
298 5 1325  1 1 0 1 1
299 5 939  0 1 1 1 1
300 5 1300  1 1 0 1 0
301 5 967  1 1 0 0 1
302 5 700  1 1 1 1 1
303 5 699  0 1 0 0 1
304 5 980  1 0 0 1 1
305 5 916  1 1 1 1 0
306 5 1172  1 1 1 1 1
307 5 1234  1 0 1 1 1
308 5 655  1 1 1 1 1
309 5 368  0 1 0 0 0
310 5 1294  1 1 1 1 1
311 5 1496  1 1 1 0 1
312 5 994  1 1 1 1 1
313 5 858  1 1 1 0 0
314 5 262  1 0 1 0 0
315 5 1477  1 1 1 0 1
316 5 294  0 0 1 0 1
317 5 1266  1 1 1 0 1
318 5 1150  1 1 0 0 1
319 5 1135  1 1 1 1 0
320 5 507  1 1 1 0 0
321 5 1248  0 1 1 1 1
322 5 905  1 0 1 0 0
323 5 732  0 1 1 0 1
324 5 1471  0 1 1 1 1
325 5 864  1 1 1 1 1
326 5 304  0 0 0 0 1
327 5 639  0 1 1 0 0
328 5 1054  1 1 1 1 1
329 5 1067  1 1 1 1 0
330 5 1271  1 1 1 1 0
331 5 708  1 0 0 1 1
332 5 1072  1 1 0 1 1
333 5 380  1 0 0 0 0
334 5 1615  1 1 1 1 1
335 5 795  1 0 0 1 1
336 5 761  1 1 0 0 0
337 5 923  1 0 1 0 1
338 5 453  0 0 0 1 0
339 5 836  1 0 0 0 1
340 5 1192  1 1 1 1 0
341 5 305  0 0 0 0 1
342 5 952  1 1 1 1 1
343 5 459  1 0 0 1 0
344 5 1523  1 1 1 1 1
345 5 1645  1 1 1 1 0
346 5 963  1 0 1 1 1
347 5 451  0 0 0 0 1
348 5 584  1 0 0 1 0
349 5 1445  1 1 1 1 1
350 5 903  1 1 1 0 0
351 5 1436  1 1 1 1 1
352 5 1031  0 1 1 1 1
353 5 769  0 1 0 1 1
354 5 1088  0 1 0 1 1
355 5 1303  1 1 1 0 1
356 5 1323  0 1 1 1 1
357 5 860  1 1 0 1 1
358 5 509  1 1 1 1 1
359 5 971  1 1 1 1 1
360 5 1003  1 0 1 0 1
361 5 414  0 1 0 0 0
362 5 385  1 0 0 0 0
363 5 997  0 1 1 0 1
364 5 887  1 0 0 1 1
365 5 1529  1 1 1 1 0
366 5 670  0 0 0 1 1
367 5 733  1 1 1 1 0
368 5 703  1 1 1 1 1
369 5 309  0 0 1 0 1
370 5 925  0 1 1 1 0
371 5 1266  1 1 0 1 1
372 5 872  1 1 1 0 1
373 5 639  0 1 0 1 0
374 5 638  1 0 0 1 0
375 5 696  1 1 0 0 1
376 5 962  1 0 1 1 1
377 5 876  0 0 1 1 0
378 5 701  1 1 0 0 1
379 5 477  0 1 0 0 0
380 5 981  1 1 0 0 1
381 5 1143  1 0 1 1 0
382 5 1752  1 1 1 1 1
383 5 325  1 0 0 0 0
384 5 903  0 1 1 0 0
385 5 1303  1 1 1 1 0
386 5 1297  1 1 1 1 1
387 5 1156  1 1 1 1 1
388 5 909  1 0 1 1 0
389 5 1094  1 1 1 0 1
390 5 813  1 0 1 1 0
391 5 1026  1 1 1 1 0
392 5 160  0 0 0 1 1
393 5 906  0 0 1 1 1
394 5 1099  0 0 1 1 1
395 5 726  0 1 0 0 1
396 5 1005  1 1 1 1 1
397 5 618  1 1 1 1 1
398 5 740  1 1 1 0 1
399 5 950  1 0 0 0 1
400 5 534  1 1 0 1 0
401 5 1177  1 0 0 1 1
402 5 868  1 1 1 1 0
403 5 937  1 1 1 0 0
404 5 1143  1 0 1 1 1
405 5 440  1 0 0 0 0
406 5 950  1 0 0 1 1
407 5 867  1 1 0 0 1
408 5 443  1 0 0 0 0
409 5 1129  1 1 1 1 1
410 5 1559  1 1 1 1 1
411 5 1076  1 1 1 1 1
412 5 411  1 0 1 0 0
413 5 860  1 0 1 1 0
414 5 1047  1 1 1 1 1
415 5 859  1 1 0 1 1
416 5 1353  1 1 1 1 0
417 5 911  1 0 0 0 1
418 5 1153  1 1 1 0 1
419 5 512  1 0 0 1 0
420 5 1550  1 0 1 1 1
421 5 491  0 1 1 0 0
422 5 725  1 0 0 0 1
423 5 1100  1 1 1 0 0
424 5 1256  1 0 1 1 1
425 5 1024  1 1 1 1 1
426 5 652  0 0 0 1 1
427 5 562  1 1 1 1 1
428 5 1018  1 0 1 0 1
429 5 1091  0 1 0 1 1
430 5 902  0 1 0 1 1
431 5 1135  1 1 1 1 0
432 5 1017  1 1 1 1 0
433 5 689  1 1 1 1 0
434 5 480  0 0 0 1 1
435 5 788  1 1 1 1 1
436 5 1223  1 0 1 1 1
437 5 704  1 1 0 1 1
438 5 804  0 1 1 0 0
439 5 1007  1 1 0 1 1
440 5 850  1 0 1 0 1
441 5 983  0 1 1 1 0
442 5 1329  1 1 1 0 0
443 5 875  0 1 1 1 1
444 5 765  1 1 0 1 1
445 5 1272  1 1 1 1 1
446 5 1032  1 0 1 1 0
447 5 818  0 1 1 0 0
448 5 1272  1 1 0 1 1
449 5 1589  1 1 1 1 1
450 5 999  0 1 1 1 0
451 5 1156  0 1 1 1 1
452 5 952  1 1 1 1 1
453 5 591  0 1 0 1 1
454 5 844  0 1 1 0 0
455 5 1141  0 1 0 1 1
456 5 820  0 1 1 1 0
457 5 1225  1 1 1 1 1
458 5 1620  1 1 1 1 1
459 5 1365  1 0 1 1 1
460 5 1302  1 0 1 1 1
461 5 1098  1 0 1 1 1
462 5 1267  1 1 0 1 1
463 5 923  0 1 0 0 1
464 5 332  1 0 0 0 0
465 5 1130  1 1 1 1 0
466 5 326  0 0 0 0 1
467 5 482  0 0 1 0 0
468 5 1162  1 1 1 1 1
469 5 1024  1 1 1 1 0
470 5 921  1 0 0 0 1
471 5 1239  1 1 0 1 0
472 5 435  0 1 0 0 0
473 5 1086  0 1 1 1 1
474 5 1369  1 1 1 1 1
475 5 560  1 0 1 0 0
476 5 1211  1 0 1 1 1
477 5 1193  1 1 1 1 0
478 5 449  0 1 0 0 0
479 5 1016  0 1 1 1 1
480 5 494  0 0 1 1 0
481 5 1340  1 1 1 1 0
482 5 440  0 1 0 0 1
483 5 911  1 1 1 1 1
484 5 1010  1 1 1 1 0
485 5 854  1 0 1 1 1
486 5 1492  1 1 1 1 1
487 5 624  1 1 0 0 0
488 5 465  0 1 1 0 0
489 5 1684  1 1 1 1 1
490 5 1024  1 1 1 1 1
491 5 826  1 1 0 0 0
492 5 1851  1 1 1 1 1
493 5 894  1 1 0 1 0
494 5 1257  1 0 1 1 1
495 5 1338  0 1 1 1 1
496 5 1453  0 1 1 1 1
497 5 951  1 1 1 0 1
498 5 803  1 1 1 1 1
499 5 388  1 1 0 0 0
